<number of tasks>
20


<number of equipment>
5


<cycle time>
1000


<investment costs>
1,27185
2,15152
3,25230
4,21387
5,24751


<task times>
1,-1,349,185,280,-1
2,316,-1,323,-1,-1
3,-1,470,320,352,-1
4,-1,-1,269,435,441
5,-1,-1,292,348,280
6,-1,-1,320,381,351
7,-1,473,336,341,-1
8,-1,-1,286,339,311
9,-1,491,265,393,-1
10,-1,476,347,384,-1
11,-1,-1,494,362,377
12,319,-1,541,-1,-1
13,-1,628,269,346,-1
14,-1,-1,294,390,426
15,-1,490,271,449,-1
16,-1,-1,402,396,528
17,-1,-1,279,327,301
18,282,-1,269,-1,-1
19,-1,-1,302,340,294
20,-1,-1,478,392,332


<precedence relations>
1,10
2,3
2,4
2,5
3,10
4,9
4,12
4,13
4,20
5,6
5,7
5,8
6,10
7,10
8,10
8,12
8,13
9,11
9,18
10,14
10,15
10,16
10,17
12,19
13,18
15,18
15,19
15,20
16,20
17,18


<task types>
1,2
2,1
3,2
4,3
5,3
6,3
7,2
8,3
9,2
10,2
11,3
12,1
13,2
14,3
15,2
16,3
17,3
18,1
19,3
20,3


<line depot>
1,0
2,1
3,3
4,5
5,0


<processing costs>
1,7200
2,7200
3,21600
4,14400
5,7200


<saving costs>
1,2718
2,1515
3,2523
4,2138
5,2475


<end>
